language ESSENCE' 1.0

letting graph_FunctionNDPartial_Flags be [[false; int(1)]; int(1)]
$ Visualisation for graph_FunctionNDPartial_Flags
$ _

letting graph_FunctionNDPartial_Values be [[1; int(1)]; int(1)]
$ Visualisation for graph_FunctionNDPartial_Values
$ 1

